
Gurobi 7.5.2 (linux64) logging started Sat Jul  7 16:00:47 2018

Changed value of parameter LogFile to result/ilp/simNo_4-n_100-m_40-s_4-minVAF_0.05-cov_10000-k_2-fn_0.15-fp_0.0001-na_0.15.ILP.gurobiSolverLog
   Prev: gurobi.log  Default: 
Changed value of parameter TimeLimit to 86400.0
   Prev: 1e+100  Min: 0.0  Max: 1e+100  Default: 1e+100
Optimize a model with 639293 rows, 10765 columns and 1940420 nonzeros
Variable types: 0 continuous, 10765 integer (10765 binary)
Coefficient statistics:
  Matrix range     [4e-04, 4e+00]
  Objective range  [1e+00, 1e+01]
  Bounds range     [1e+00, 1e+00]
  RHS range        [3e-01, 2e+00]
Found heuristic solution: objective -17509.19888
Presolve removed 125818 rows and 999 columns (presolve time = 5s) ...
Presolve removed 126380 rows and 999 columns (presolve time = 13s) ...
Presolve removed 181780 rows and 1553 columns (presolve time = 15s) ...
Presolve removed 181780 rows and 1553 columns
Presolve time: 18.00s
Presolved: 457513 rows, 9212 columns, 1375912 nonzeros
Variable types: 0 continuous, 9212 integer (9212 binary)
Presolved: 9212 rows, 466725 columns, 1385124 nonzeros

Presolve removed 9212 rows and 466725 columns

Root simplex log...

Iteration    Objective       Primal Inf.    Dual Inf.      Time
       0    2.3575549e+01   0.000000e+00   8.612900e+04     21s
   22384   -2.5999540e+02   0.000000e+00   3.630027e+05     25s
   39995   -3.3637946e+02   0.000000e+00   5.886962e+05     31s
   55663   -3.8464484e+02   0.000000e+00   2.634262e+05     35s
   68380   -4.1096810e+02   0.000000e+00   2.453009e+05     40s
   77132   -4.1994480e+02   9.628630e-02   0.000000e+00     46s
   77145   -4.1994480e+02   0.000000e+00   0.000000e+00     46s
   77145   -4.1994480e+02   0.000000e+00   0.000000e+00     47s

Root relaxation: objective -4.199448e+02, 77145 iterations, 27.61 seconds
Total elapsed time = 133.91s
Total elapsed time = 217.03s
Total elapsed time = 295.99s

    Nodes    |    Current Node    |     Objective Bounds      |     Work
 Expl Unexpl |  Obj  Depth IntInf | Incumbent    BestBd   Gap | It/Node Time

     0     0 -419.94480    0 1293 -17509.199 -419.94480  97.6%     -  374s
H    0     0                    -539.9559603 -419.94480  22.2%     -  379s
H    0     0                    -517.5078288 -419.94480  18.9%     -  379s
     0     0 -425.12513    0 1324 -517.50783 -425.12513  17.9%     - 15306s
     0     0 -425.12513    0 1321 -517.50783 -425.12513  17.9%     - 15320s
     0     0 -427.09330    0 1324 -517.50783 -427.09330  17.5%     - 22956s
     0     0 -427.12298    0 1317 -517.50783 -427.12298  17.5%     - 22966s
     0     0 -427.12946    0 1309 -517.50783 -427.12946  17.5%     - 22998s
     0     0 -427.15682    0 1307 -517.50783 -427.15682  17.5%     - 23054s
     0     0 -427.17616    0 1307 -517.50783 -427.17616  17.5%     - 23077s
     0     0 -430.56341    0 1340 -517.50783 -430.56341  16.8%     - 26923s
H    0     0                    -503.6935940 -430.56341  14.5%     - 26950s
     0     0 -430.66930    0 1317 -503.69359 -430.66930  14.5%     - 26992s
     0     0 -430.66930    0 1318 -503.69359 -430.66930  14.5%     - 26995s
     0     0 -433.08871    0 1326 -503.69359 -433.08871  14.0%     - 29148s
     0     0 -433.51911    0 1353 -503.69359 -433.51911  13.9%     - 29386s
     0     0 -433.51911    0 1351 -503.69359 -433.51911  13.9%     - 29389s
     0     0 -435.40585    0 1328 -503.69359 -435.40585  13.6%     - 30833s
H    0     0                    -496.7864766 -435.40585  12.4%     - 30871s
     0     0 -435.40585    0 1314 -496.78648 -435.40585  12.4%     - 30875s
     0     0 -436.70585    0 1378 -496.78648 -436.70585  12.1%     - 31272s
     0     0 -436.80385    0 1377 -496.78648 -436.80385  12.1%     - 31347s
     0     0 -436.80385    0 1377 -496.78648 -436.80385  12.1%     - 31350s
     0     0 -438.22862    0 1382 -496.78648 -438.22862  11.8%     - 31539s
H    0     0                    -495.0596972 -438.22862  11.5%     - 31565s
     0     0 -438.32343    0 1373 -495.05970 -438.32343  11.5%     - 31633s
     0     0 -438.40642    0 1373 -495.05970 -438.40642  11.4%     - 31669s
     0     0 -438.40642    0 1375 -495.05970 -438.40642  11.4%     - 31671s
     0     0 -440.01826    0 1353 -495.05970 -440.01826  11.1%     - 32319s
     0     0 -440.03610    0 1365 -495.05970 -440.03610  11.1%     - 32365s
     0     0 -441.96123    0 1120 -495.05970 -441.96123  10.7%     - 34013s
     0     0 -442.10513    0 1117 -495.05970 -442.10513  10.7%     - 34386s
     0     0 -442.26010    0 1124 -495.05970 -442.26010  10.7%     - 34753s
     0     0 -442.26211    0 1137 -495.05970 -442.26211  10.7%     - 34779s
     0     0 -443.25632    0 1183 -495.05970 -443.25632  10.5%     - 36334s
     0     0 -443.60167    0 1222 -495.05970 -443.60167  10.4%     - 36532s
     0     0 -443.73598    0 1228 -495.05970 -443.73598  10.4%     - 36582s
     0     0 -443.74968    0 1235 -495.05970 -443.74968  10.4%     - 36598s
     0     0 -443.74968    0 1235 -495.05970 -443.74968  10.4%     - 36601s
     0     0 -444.81706    0 1219 -495.05970 -444.81706  10.1%     - 38367s
H    0     0                    -493.3329179 -444.81706  9.83%     - 38409s
     0     0 -445.00582    0 1235 -493.33292 -445.00582  9.80%     - 38546s
     0     0 -445.08401    0 1225 -493.33292 -445.08401  9.78%     - 38659s
     0     0 -445.10644    0 1230 -493.33292 -445.10644  9.78%     - 38701s
     0     0 -445.10644    0 1227 -493.33292 -445.10644  9.78%     - 38705s
     0     0 -445.47646    0 1137 -493.33292 -445.47646  9.70%     - 39178s
     0     0 -445.76426    0 1193 -493.33292 -445.76426  9.64%     - 39925s
     0     0 -445.76426    0 1198 -493.33292 -445.76426  9.64%     - 39930s
     0     0 -446.42208    0 1262 -493.33292 -446.42208  9.51%     - 44292s
     0     0 -446.76743    0 1094 -493.33292 -446.76743  9.44%     - 44638s
     0     0 -446.76743    0 1087 -493.33292 -446.76743  9.44%     - 44645s
     0     0 -446.76743    0 1246 -493.33292 -446.76743  9.44%     - 44679s
     0     0 -447.05523    0 1260 -493.33292 -447.05523  9.38%     - 45415s
     0     0 -447.09360    0 1254 -493.33292 -447.09360  9.37%     - 45436s
     0     0 -447.10560    0 1252 -493.33292 -447.10560  9.37%     - 45543s
     0     0 -447.12101    0 1244 -493.33292 -447.12101  9.37%     - 45570s
     0     0 -447.17035    0 1241 -493.33292 -447.17035  9.36%     - 45590s
     0     0 -447.17035    0 1241 -493.33292 -447.17035  9.36%     - 45595s
     0     0 -449.10818    0 1248 -493.33292 -449.10818  8.96%     - 49645s
     0     0 -449.30004    0 1219 -493.33292 -449.30004  8.93%     - 49949s
     0     0 -449.40797    0 1196 -493.33292 -449.40797  8.90%     - 50465s
     0     0 -449.40797    0 1202 -493.33292 -449.40797  8.90%     - 50480s
     0     0 -450.55915    0 1274 -493.33292 -450.55915  8.67%     - 56844s
     0     0 -450.65680    0 1262 -493.33292 -450.65680  8.65%     - 56946s
     0     0 -450.73903    0 1264 -493.33292 -450.73903  8.63%     - 56967s
     0     0 -450.73903    0 1278 -493.33292 -450.73903  8.63%     - 56974s
     0     0 -451.56644    0 1253 -493.33292 -451.56644  8.47%     - 57375s
     0     0 -451.82969    0 1230 -493.33292 -451.82969  8.41%     - 57659s
     0     0 -451.97280    0 1228 -493.33292 -451.97280  8.38%     - 57865s
     0     0 -452.01485    0 1226 -493.33292 -452.01485  8.38%     - 57921s
     0     0 -452.01485    0 1224 -493.33292 -452.01485  8.38%     - 57926s
     0     0 -453.10848    0 1215 -493.33292 -453.10848  8.15%     - 61159s
     0     0 -453.10848    0 1215 -493.33292 -453.10848  8.15%     - 61220s
     0     0 -453.95084    0 1238 -493.33292 -453.95084  7.98%     - 61346s
     0     0 -454.10625    0 1238 -493.33292 -454.10625  7.95%     - 61439s
     0     0 -454.15558    0 1234 -493.33292 -454.15558  7.94%     - 61470s
     0     0 -454.18007    0 1233 -493.33292 -454.18007  7.94%     - 61786s
     0     0 -454.22856    0 1226 -493.33292 -454.22856  7.93%     - 61806s
     0     0 -454.23370    0 1228 -493.33292 -454.23370  7.93%     - 61815s
     0     0 -454.24337    0 1229 -493.33292 -454.24337  7.92%     - 61823s
     0     0 -454.24337    0 1230 -493.33292 -454.24337  7.92%     - 61825s
     0     0 -454.76818    0 1228 -493.33292 -454.76818  7.82%     - 64045s
     0     0 -455.45684    0 1238 -493.33292 -455.45684  7.68%     - 64419s
     0     0 -455.48767    0 1222 -493.33292 -455.48767  7.67%     - 64649s
     0     0 -455.48767    0 1222 -493.33292 -455.48767  7.67%     - 64653s
     0     0 -455.50406    0 1237 -493.33292 -455.50406  7.67%     - 64744s
     0     0 -456.00570    0 1231 -493.33292 -456.00570  7.57%     - 70112s
     0     0 -456.01530    0 1229 -493.33292 -456.01530  7.56%     - 70124s
     0     0 -456.01530    0 1237 -493.33292 -456.01530  7.56%     - 70130s
     0     0 -456.01530    0 1229 -493.33292 -456.01530  7.56%     - 70140s
     0     0 -456.51106    0 1242 -493.33292 -456.51106  7.46%     - 70507s
     0     0 -456.56691    0 1239 -493.33292 -456.56691  7.45%     - 70597s
     0     0 -456.59089    0 1227 -493.33292 -456.59089  7.45%     - 70638s
     0     0 -456.59089    0 1235 -493.33292 -456.59089  7.45%     - 70644s
     0     0 -456.95322    0 1234 -493.33292 -456.95322  7.37%     - 71770s
     0     0 -457.22818    0 1253 -493.33292 -457.22818  7.32%     - 71953s
     0     0 -457.25932    0 1248 -493.33292 -457.25932  7.31%     - 72111s
     0     0 -457.31038    0 1234 -493.33292 -457.31038  7.30%     - 72126s
     0     0 -457.31038    0 1238 -493.33292 -457.31038  7.30%     - 72129s
     0     0 -457.77316    0 1244 -493.33292 -457.77316  7.21%     - 72226s
     0     0 -458.02531    0 1245 -493.33292 -458.02531  7.16%     - 72351s
     0     0 -458.19029    0 1254 -493.33292 -458.19029  7.12%     - 72393s
     0     0 -458.22174    0 1239 -493.33292 -458.22174  7.12%     - 72444s
     0     0 -458.22174    0 1231 -493.33292 -458.22174  7.12%     - 72446s
     0     0 -458.71099    0 1229 -493.33292 -458.71099  7.02%     - 72707s
     0     0 -458.94123    0 1233 -493.33292 -458.94123  6.97%     - 73534s
     0     0 -458.97001    0 1236 -493.33292 -458.97001  6.97%     - 73554s
     0     0 -458.97001    0 1236 -493.33292 -458.97001  6.97%     - 73557s
     0     0 -459.05483    0 1247 -493.33292 -459.05483  6.95%     - 73646s
H    0     0                    -491.6061385 -459.05483  6.62%     - 73686s
     0     0 -459.66072    0 1230 -491.60614 -459.66072  6.50%     - 78780s
     0     0 -459.66072    0 1231 -491.60614 -459.66072  6.50%     - 78785s
     0     0          -    0      -491.60614 -459.66072  6.50%     - 86400s

Cutting planes:
  Gomory: 1
  Zero half: 359

Explored 1 nodes (2824477 simplex iterations) in 86400.37 seconds
Thread count was 1 (of 80 available processors)

Solution count 8: -491.606 -493.333 -495.06 ... -17509.2

Time limit reached
Best objective -4.916061385110e+02, best bound -4.596607205454e+02, gap 6.4982%
